Route #1: 17 3 44 32 50 18 55 25 9 39
Route #2: 40 72 31 10 38 58 12
Route #3: 53 11 65 66 59 14 35
Route #4: 67 34 46 52 27 13 8 7 26
Route #5: 19 54 57 15 37 20 70 60 71 36 69 61 21
Route #6: 22 64 42 43 41 56 23 24 49 16 51
Route #7: 6 33 63 1 73 62 28 74 2 68
Route #8: 4 45 29 5 47 48 30 75
Cost 765